p cnf 11 32
11 -10 -7 0
-11 -10 4 0
-11 10 -3 0
11 10 2 0
-11 -9 -4 0
11 8 5 0
11 8 -1 0
-11 7 -6 0
11 -5 -1 0
11 4 3 0
10 -9 -1 0
-10 8 -5 0
10 -8 1 0
-10 -7 6 0
10 7 2 0
-10 -6 -4 0
10 2 -1 0
9 6 -5 0
-9 5 4 0
9 3 1 0
8 -7 3 0
8 7 -1 0
8 -6 -3 0
-8 4 -3 0
8 4 -1 0
-7 6 4 0
7 -6 -3 0
-7 4 -3 0
6 5 -3 0
-6 4 -2 0
-5 4 -1 0
-5 -2 -1 0
